0000000000000000
0000000000000000
0001111111111100
0001111111111100
0001111111111100
0000001111111000
0000001111110000
0000000111110000
0000000011110000
0000000011110000
0000000011110000
0000000011110000
0000000011110000
0000000011110000
0000000011110000
0000000000000000
